47 0
3 24
17 30
23 25
45 45
41 35
30 28
15 12
36 25
43 15
1 33
23 21
15 27
27 47
21 5
10 31
24 28
6 41
34 1
37 11
4 25
20 4
6 21
7 11
28 10
25 31
37 35
12 14
49 32
25 3
40 12
2 20
38 18
17 20
26 15
43 43
24 26
7 0
33 36
5 0
36 41
14 33
24 31
17 16
24 19
39 23
35 7
29 6
18 6
16 0
